p tdp 100 99
24 10
50 39
27 85
71 82
38 53
94 15
30 65
94 86
16 5
33 41
36 16
42 100
46 79
72 27
79 62
60 12
49 10
78 31
76 1
58 37
9 54
90 100
89 55
11 72
57 23
71 11
73 53
64 22
46 11
86 76
93 47
14 76
9 7
84 68
69 40
19 34
38 28
68 10
31 93
98 80
40 77
34 2
99 9
86 29
92 83
40 18
63 85
100 5
21 99
6 41
9 41
44 55
22 89
60 87
92 51
40 41
50 61
70 83
5 72
4 17
70 43
48 51
38 45
75 52
98 35
34 98
59 42
91 15
81 84
13 8
89 60
32 30
3 26
61 75
20 25
12 65
89 70
96 88
96 97
53 66
43 90
67 4
17 68
57 24
20 58
82 91
4 31
53 13
24 5
96 25
3 95
56 26
35 26
44 38
28 18
97 95
74 38
18 37
50 19
